%%% static parameters %%%
Fact = [3];
Distr1 = [10];
Distr2 = [20];
Clients_N = [40];
Demand_W = [15];
Lt0 = [4];
Lt1 = [4];
SS_ = [0.85];
DS_D = [7];
K = [200];
MA = [500];
%%% dynamic parameters %%%
lost_ratio_sales_ret_th = 0.37300489567960127;
lost_ratio_sales_ret_w = 89;
lost_ratio_sales_dis_th = 0.8868177859295081;
lost_ratio_sales_dis_w = 53;
lost_ratio_sales_fac_th = 0.7960795854415521;
lost_ratio_sales_fac_w = 88;
stock_customer_MA_mean_relative_th = 0.7230533003966504;
stock_customer_MA_mean_relative_w = 42;
stock_distributor_MA_mean_relative_th = 0.23272279514940042;
stock_distributor_MA_mean_relative_w = 91;
stock_retailer_MA_mean_relative_th = 0.5614325981241547;
stock_retailer_MA_mean_relative_w = 15;
stock_factory_MA_mean_relative_th = 0.7942996233258658;
stock_factory_MA_mean_relative_w = 21;
